RAW/XQ/fspd/X-n129-k18.vrp_seed-9.out
21939	16.47	24.91
