RAW/XQ/fspd/X-n129-k18.vrp_seed-9.sol
Route #1: 125 99 31 97 69 120 51 109 83 28 118
Route #2: 47 127 70 53 119 50 78
Route #3: 3
Route #4: 86 93 75 103 89 66 15 91
Route #5: 74 122 115 117 14 38
Route #6: 90 1 59 18 27 113 88
Route #7: 30 84 25 62 56 13 57 35 77 60 23 44 64
Route #8: 87 121 94 29 45 6 54 7 19 63 20
Route #9: 123 5 106 128 107 36 81 111 4 98 68 80
Route #10: 82 67 39 43 124 9 52
Route #11: 26 126 71 65 104 92 49 73 114 32 16 42 24
Route #12: 22 46 33 21 34 2 48 58 101 17 105 108 100 72 112 102
Route #13: 110 11 41 40 55 61 85 76 79 10 116 95 96 12 37 8
Cost 21939.000000